Route #1: 57 13 12 22 4 26 43
Route #2: 10 6 41 2 46 20 29 36 21
Route #3: 39 28 44 16 56 27 19 23
Route #4: 53 8 5 54 25
Route #5: 51 34 11 60 31 17 52 50
Route #6: 7 59 45 49 40 24
Route #7: 9 1 48 18 35 47 58
Route #8: 14 33 42 3 30 32 55
Route #9: 15 38 37
cost 1335.699462890625